c defined variables: 13 25 29 33 37 41 45 49 53 57 61 65 69 73 77 81 85 89 93 97 101 105 109 113 126 136 140 144 148 152 156 160 164 168 172 176 180 184 188 192 196 200 204 208 212 216 220 224 229 230 235 236 241 242 247 254 255 257 258 259 261 262 264 265 266 267 269 270 272 273 274 276 277 279 280 281 282 283 285 286 288 289 290 292 293 295 296 297 298 300 301 303 304 305 307 308 310 311 312 313 314 315 317 318 320 321 322 324 325 327 328 329 330 332 333 335 336 337 339 340 342 343 344 345 346 348 349 351 352 353 355 356 358 359 360 361 364 365 366 367 368 369 370 371 372 373 374 375 376 377 378 379 380 381 382 383 384 385 386 387 388 389 390 391 392 393 394 395 396 397 398 399 400 401 402 403 404 405 406 407 408 409 410 411 412 413 414 415 416 417 418 419 420 421 422 423 424 425 426 427 428 429 430 431 432 433 434 435 436 437 438 439 440 441 442 443 444 445 446 447 448 449 450 451 452 453 454 455 456 457 458 459 460 462 
p cnf 1632 2067
a 250 245 239 233 68 72 56 64 48 60 40 52 32 44 319 323 287 291 294 299 302 306 309 316 246 357 347 341 354 350 331 326 338 334 20 36 4 8 24 16 1 28 12 240 5 228 234 21 2 9 17 191 183 167 171 179 175 151 155 159 163 278 284 256 260 253 271 275 263 268 199 203 187 195 215 219 211 207 223 227 104 96 100 92 88 84 76 80 112 108 122 135 129 132 116 139 125 119 147 143 0
e 3 6 7 10 11 14 15 18 19 22 23 26 27 30 31 34 35 38 39 42 43 46 47 50 51 54 55 58 59 62 63 66 67 70 71 74 75 78 79 82 83 86 87 90 91 94 95 98 99 102 103 106 107 110 111 114 115 117 118 120 121 123 124 127 128 130 131 133 134 137 138 141 142 145 146 149 150 153 154 157 158 161 162 165 166 169 170 173 174 177 178 181 182 185 186 189 190 193 194 197 198 201 202 205 206 209 210 213 214 217 218 221 222 225 226 231 232 237 238 243 244 248 249 251 252 363 461 13 25 29 33 37 41 45 49 53 57 61 65 69 73 77 81 85 89 93 97 101 105 109 113 126 136 140 144 148 152 156 160 164 168 172 176 180 184 188 192 196 200 204 208 212 216 220 224 229 230 235 236 241 242 247 254 255 257 258 259 261 262 264 265 266 267 269 270 272 273 274 276 277 279 280 281 282 283 285 286 288 289 290 292 293 295 296 297 298 300 301 303 304 305 307 308 310 311 312 313 314 315 317 318 320 321 322 324 325 327 328 329 330 332 333 335 336 337 339 340 342 343 344 345 346 348 349 351 352 353 355 356 358 359 360 361 364 365 366 367 368 369 370 371 372 373 374 375 376 377 378 379 380 381 382 383 384 385 386 387 388 389 390 391 392 393 394 395 396 397 398 399 400 401 402 403 404 405 406 407 408 409 410 411 412 413 414 415 416 417 418 419 420 421 422 423 424 425 426 427 428 429 430 431 432 433 434 435 436 437 438 439 440 441 442 443 444 445 446 447 448 449 450 451 452 453 454 455 456 457 458 459 460 462 1417 1418 1419 1420 1421 1422 1423 1424 1425 1426 1427 1428 1429 1430 1431 1432 1433 1434 1435 1436 1437 1438 1439 1440 1441 1442 1443 1444 1445 1446 1447 1448 1449 1450 1451 1452 1453 1454 1455 1456 1457 1458 1459 1460 1461 1462 1463 1464 1465 1466 1467 1468 1469 1470 1471 1472 1473 1474 1475 1476 1477 1478 1479 1480 1481 1482 1483 1484 1485 1486 1487 1488 1489 1490 1491 1492 1493 1494 1495 1496 1497 1498 1499 1500 1501 1502 1503 1504 1505 1506 1507 1508 1509 1510 1511 1512 1513 1514 1515 1516 1517 1518 1519 1520 1521 1522 1523 1524 1525 1526 1527 1528 1529 1530 1531 1532 1533 1534 1535 1536 1537 1538 1539 1540 1541 1542 1543 1544 1545 1546 1547 1548 1549 1550 1551 1552 1553 1554 1555 1556 1557 1558 1559 1560 1561 1562 1563 1564 1565 1566 1567 1568 1569 1570 1571 1572 1573 1574 1575 1576 1577 1578 1579 1580 1581 1582 1583 1584 1585 1586 1587 1588 1589 1590 1591 1592 1593 1594 1595 1596 1597 1598 1599 1600 1601 1602 1603 1604 1605 1606 1607 1608 1609 1610 1611 1612 1613 1614 1615 1616 1617 1618 1619 1620 1621 1622 1623 1624 1625 1626 1627 1628 1629 1630 1631 1632 0
d 362 250 245 239 227 233 0
1418 -13 0
-1418 13 0
1419 -25 0
-1419 25 0
1420 -29 0
-1420 29 0
1421 -33 0
-1421 33 0
1422 -37 0
-1422 37 0
1423 -41 0
-1423 41 0
1424 -45 0
-1424 45 0
1425 -49 0
-1425 49 0
1426 -53 0
-1426 53 0
1427 -57 0
-1427 57 0
1428 -61 0
-1428 61 0
1429 -65 0
-1429 65 0
1430 -69 0
-1430 69 0
1431 -73 0
-1431 73 0
1432 -77 0
-1432 77 0
1433 -81 0
-1433 81 0
1434 -85 0
-1434 85 0
1435 -89 0
-1435 89 0
1436 -93 0
-1436 93 0
1437 -97 0
-1437 97 0
1438 -101 0
-1438 101 0
1439 -105 0
-1439 105 0
1440 -109 0
-1440 109 0
1441 -113 0
-1441 113 0
1442 -126 0
-1442 126 0
1443 -136 0
-1443 136 0
1444 -140 0
-1444 140 0
1445 -144 0
-1445 144 0
1446 -148 0
-1446 148 0
1447 -152 0
-1447 152 0
1448 -156 0
-1448 156 0
1425 -160 0
-1425 160 0
1449 -164 0
-1449 164 0
1450 -168 0
-1450 168 0
1451 -172 0
-1451 172 0
1452 -176 0
-1452 176 0
1453 -180 0
-1453 180 0
1454 -184 0
-1454 184 0
1455 -188 0
-1455 188 0
1456 -192 0
-1456 192 0
1457 -196 0
-1457 196 0
1458 -200 0
-1458 200 0
1459 -204 0
-1459 204 0
1437 -208 0
-1437 208 0
1460 -212 0
-1460 212 0
1461 -216 0
-1461 216 0
1462 -220 0
-1462 220 0
1463 -224 0
-1463 224 0
1464 -229 0
-1464 229 0
1465 -230 0
-1465 230 0
1466 -235 0
-1466 235 0
1467 -236 0
-1467 236 0
1468 -241 0
-1468 241 0
1469 -242 0
-1469 242 0
1470 -247 0
-1470 247 0
1471 -254 0
-1471 254 0
1472 -255 0
-1472 255 0
1473 -257 0
-1473 257 0
1474 -258 0
-1474 258 0
-1475 -259 0
1475 259 0
1476 -261 0
-1476 261 0
1477 -262 0
-1477 262 0
1478 -264 0
-1478 264 0
1479 -265 0
-1479 265 0
-1480 -266 0
1480 266 0
-1481 -267 0
1481 267 0
1482 -269 0
-1482 269 0
1483 -270 0
-1483 270 0
1484 -272 0
-1484 272 0
1485 -273 0
-1485 273 0
-1486 -274 0
1486 274 0
1487 -276 0
-1487 276 0
1488 -277 0
-1488 277 0
1489 -279 0
-1489 279 0
1490 -280 0
-1490 280 0
-1491 -281 0
1491 281 0
-1492 -282 0
1492 282 0
-1493 -283 0
1493 283 0
1494 -285 0
-1494 285 0
1495 -286 0
-1495 286 0
1496 -288 0
-1496 288 0
1497 -289 0
-1497 289 0
-1498 -290 0
1498 290 0
1499 -292 0
-1499 292 0
1500 -293 0
-1500 293 0
1501 -295 0
-1501 295 0
1502 -296 0
-1502 296 0
-1503 -297 0
1503 297 0
-1504 -298 0
1504 298 0
1505 -300 0
-1505 300 0
1506 -301 0
-1506 301 0
1507 -303 0
-1507 303 0
1508 -304 0
-1508 304 0
-1509 -305 0
1509 305 0
1510 -307 0
-1510 307 0
1511 -308 0
-1511 308 0
1512 -310 0
-1512 310 0
1513 -311 0
-1513 311 0
-1514 -312 0
1514 312 0
-1515 -313 0
1515 313 0
-1516 -314 0
1516 314 0
-1517 -315 0
1517 315 0
1518 -317 0
-1518 317 0
1519 -318 0
-1519 318 0
1520 -320 0
-1520 320 0
1521 -321 0
-1521 321 0
-1522 -322 0
1522 322 0
1523 -324 0
-1523 324 0
1524 -325 0
-1524 325 0
1525 -327 0
-1525 327 0
1526 -328 0
-1526 328 0
-1527 -329 0
1527 329 0
-1528 -330 0
1528 330 0
1529 -332 0
-1529 332 0
1530 -333 0
-1530 333 0
1531 -335 0
-1531 335 0
1532 -336 0
-1532 336 0
-1533 -337 0
1533 337 0
1534 -339 0
-1534 339 0
1535 -340 0
-1535 340 0
1536 -342 0
-1536 342 0
1537 -343 0
-1537 343 0
-1538 -344 0
1538 344 0
-1539 -345 0
1539 345 0
-1540 -346 0
1540 346 0
1541 -348 0
-1541 348 0
1542 -349 0
-1542 349 0
1543 -351 0
-1543 351 0
1544 -352 0
-1544 352 0
-1545 -353 0
1545 353 0
1546 -355 0
-1546 355 0
1547 -356 0
-1547 356 0
1548 -358 0
-1548 358 0
1549 -359 0
-1549 359 0
-1550 -360 0
1550 360 0
-1551 -361 0
1551 361 0
-1552 -364 0
1552 364 0
-1553 -365 0
1553 365 0
1554 -366 0
-1554 366 0
1555 -367 0
-1555 367 0
1556 -368 0
-1556 368 0
1557 -369 0
-1557 369 0
-1558 -370 0
1558 370 0
1559 -371 0
-1559 371 0
1560 -372 0
-1560 372 0
1561 -373 0
-1561 373 0
1562 -374 0
-1562 374 0
-1563 -375 0
1563 375 0
-1564 -376 0
1564 376 0
1565 -377 0
-1565 377 0
1566 -378 0
-1566 378 0
1567 -379 0
-1567 379 0
1568 -380 0
-1568 380 0
-1569 -381 0
1569 381 0
1570 -382 0
-1570 382 0
1571 -383 0
-1571 383 0
1572 -384 0
-1572 384 0
1573 -385 0
-1573 385 0
-1574 -386 0
1574 386 0
-1575 -387 0
1575 387 0
-1576 -388 0
1576 388 0
1577 -389 0
-1577 389 0
1578 -390 0
-1578 390 0
1579 -391 0
-1579 391 0
1580 -392 0
-1580 392 0
-1581 -393 0
1581 393 0
1582 -394 0
-1582 394 0
1583 -395 0
-1583 395 0
1584 -396 0
-1584 396 0
1585 -397 0
-1585 397 0
-1586 -398 0
1586 398 0
-1587 -399 0
1587 399 0
1588 -400 0
-1588 400 0
1589 -401 0
-1589 401 0
1590 -402 0
-1590 402 0
1591 -403 0
-1591 403 0
-1592 -404 0
1592 404 0
1593 -405 0
-1593 405 0
1594 -406 0
-1594 406 0
1595 -407 0
-1595 407 0
1596 -408 0
-1596 408 0
-1597 -409 0
1597 409 0
-1598 -410 0
1598 410 0
-1599 -411 0
1599 411 0
-1600 -412 0
1600 412 0
1518 -413 0
-1518 413 0
1601 -414 0
-1601 414 0
1520 -415 0
-1520 415 0
1602 -416 0
-1602 416 0
-1603 -417 0
1603 417 0
1523 -418 0
-1523 418 0
1604 -419 0
-1604 419 0
1525 -420 0
-1525 420 0
1605 -421 0
-1605 421 0
-1606 -422 0
1606 422 0
-1607 -423 0
1607 423 0
1529 -424 0
-1529 424 0
1608 -425 0
-1608 425 0
1531 -426 0
-1531 426 0
1609 -427 0
-1609 427 0
-1610 -428 0
1610 428 0
1534 -429 0
-1534 429 0
1611 -430 0
-1611 430 0
1536 -431 0
-1536 431 0
1612 -432 0
-1612 432 0
-1613 -433 0
1613 433 0
-1614 -434 0
1614 434 0
-1615 -435 0
1615 435 0
1541 -436 0
-1541 436 0
1616 -437 0
-1616 437 0
1543 -438 0
-1543 438 0
1617 -439 0
-1617 439 0
-1618 -440 0
1618 440 0
1546 -441 0
-1546 441 0
1619 -442 0
-1619 442 0
1548 -443 0
-1548 443 0
1620 -444 0
-1620 444 0
-1621 -445 0
1621 445 0
-1622 -446 0
1622 446 0
1470 -447 0
-1470 447 0
1623 -448 0
-1623 448 0
1464 -449 0
-1464 449 0
1624 -450 0
-1624 450 0
-1625 -451 0
1625 451 0
1466 -452 0
-1466 452 0
1626 -453 0
-1626 453 0
1468 -454 0
-1468 454 0
1627 -455 0
-1627 455 0
-1628 -456 0
1628 456 0
-1629 -457 0
1629 457 0
-1630 -458 0
1630 458 0
-1631 -459 0
1631 459 0
-1632 -460 0
1632 460 0
1417 -462 0
-1417 462 0
462 0
-462 252 461 0
-252 249 -251 0
-249 244 -248 0
-244 238 -243 0
-238 232 -237 0
-232 226 -231 0
-226 222 -225 0
-222 218 -221 0
-218 214 -217 0
-214 210 -213 0
-210 206 -209 0
-206 202 -205 0
-202 198 -201 0
-198 194 -197 0
-194 190 -193 0
-190 186 -189 0
-186 182 -185 0
-182 178 -181 0
-178 174 -177 0
-174 170 -173 0
-170 166 -169 0
-166 162 -165 0
-162 158 -161 0
-158 154 -157 0
-154 150 -153 0
-150 146 -149 0
-146 142 -145 0
-142 138 -141 0
-138 134 -137 0
-134 131 -133 0
-131 128 -130 0
-128 124 -127 0
-124 121 -123 0
-121 118 -120 0
-118 115 -117 0
-115 111 -114 0
-111 107 -110 0
-107 103 -106 0
-103 99 -102 0
-99 95 -98 0
-95 91 -94 0
-91 87 -90 0
-87 83 -86 0
-83 79 -82 0
-79 75 -78 0
-75 71 -74 0
-71 67 -70 0
-67 63 -66 0
-63 59 -62 0
-59 55 -58 0
-55 51 -54 0
-51 47 -50 0
-47 43 -46 0
-43 39 -42 0
-39 35 -38 0
-35 31 -34 0
-31 27 -30 0
-27 23 -26 0
-23 19 -22 0
-19 15 -18 0
-15 11 -14 0
-11 7 -10 0
-7 -3 -6 0
1 -2 3 0
-1 2 3 0
4 -5 6 0
-4 5 6 0
8 -9 10 0
-8 9 10 0
12 13 14 0
-12 -13 14 0
-4 -8 13 0
-13 4 0
-13 8 0
16 -17 18 0
-16 17 18 0
20 -21 22 0
-20 21 22 0
24 25 26 0
-24 -25 26 0
-16 -20 25 0
-25 16 0
-25 20 0
28 29 30 0
-28 -29 30 0
-12 -24 29 0
-29 12 0
-29 24 0
32 33 34 0
-32 -33 34 0
-5 -8 33 0
-33 5 0
-33 8 0
36 37 38 0
-36 -37 38 0
-32 -24 37 0
-37 32 0
-37 24 0
40 41 42 0
-40 -41 42 0
-4 -9 41 0
-41 4 0
-41 9 0
44 45 46 0
-44 -45 46 0
-40 -24 45 0
-45 40 0
-45 24 0
48 49 50 0
-48 -49 50 0
-5 -9 49 0
-49 5 0
-49 9 0
52 53 54 0
-52 -53 54 0
-48 -24 53 0
-53 48 0
-53 24 0
56 57 58 0
-56 -57 58 0
-17 -20 57 0
-57 17 0
-57 20 0
60 61 62 0
-60 -61 62 0
-12 -56 61 0
-61 12 0
-61 56 0
64 65 66 0
-64 -65 66 0
-32 -56 65 0
-65 32 0
-65 56 0
68 69 70 0
-68 -69 70 0
-40 -56 69 0
-69 40 0
-69 56 0
72 73 74 0
-72 -73 74 0
-48 -56 73 0
-73 48 0
-73 56 0
76 77 78 0
-76 -77 78 0
-16 -21 77 0
-77 16 0
-77 21 0
80 81 82 0
-80 -81 82 0
-12 -76 81 0
-81 12 0
-81 76 0
84 85 86 0
-84 -85 86 0
-32 -76 85 0
-85 32 0
-85 76 0
88 89 90 0
-88 -89 90 0
-40 -76 89 0
-89 40 0
-89 76 0
92 93 94 0
-92 -93 94 0
-48 -76 93 0
-93 48 0
-93 76 0
96 97 98 0
-96 -97 98 0
-17 -21 97 0
-97 17 0
-97 21 0
100 101 102 0
-100 -101 102 0
-12 -96 101 0
-101 12 0
-101 96 0
104 105 106 0
-104 -105 106 0
-32 -96 105 0
-105 32 0
-105 96 0
108 109 110 0
-108 -109 110 0
-40 -96 109 0
-109 40 0
-109 96 0
112 113 114 0
-112 -113 114 0
-48 -96 113 0
-113 48 0
-113 96 0
116 -2 117 0
-116 2 117 0
119 -5 120 0
-119 5 120 0
122 -9 123 0
-122 9 123 0
125 126 127 0
-125 -126 127 0
-119 -122 126 0
-126 119 0
-126 122 0
129 -17 130 0
-129 17 130 0
132 -21 133 0
-132 21 133 0
135 136 137 0
-135 -136 137 0
-129 -132 136 0
-136 129 0
-136 132 0
139 140 141 0
-139 -140 141 0
-125 -135 140 0
-140 125 0
-140 135 0
143 144 145 0
-143 -144 145 0
-5 -122 144 0
-144 5 0
-144 122 0
147 148 149 0
-147 -148 149 0
-143 -135 148 0
-148 143 0
-148 135 0
151 152 153 0
-151 -152 153 0
-119 -9 152 0
-152 119 0
-152 9 0
155 156 157 0
-155 -156 157 0
-151 -135 156 0
-156 151 0
-156 135 0
159 160 161 0
-159 -160 161 0
-5 -9 160 0
-160 5 0
-160 9 0
163 164 165 0
-163 -164 165 0
-159 -135 164 0
-164 159 0
-164 135 0
167 168 169 0
-167 -168 169 0
-17 -132 168 0
-168 17 0
-168 132 0
171 172 173 0
-171 -172 173 0
-125 -167 172 0
-172 125 0
-172 167 0
175 176 177 0
-175 -176 177 0
-143 -167 176 0
-176 143 0
-176 167 0
179 180 181 0
-179 -180 181 0
-151 -167 180 0
-180 151 0
-180 167 0
183 184 185 0
-183 -184 185 0
-159 -167 184 0
-184 159 0
-184 167 0
187 188 189 0
-187 -188 189 0
-129 -21 188 0
-188 129 0
-188 21 0
191 192 193 0
-191 -192 193 0
-125 -187 192 0
-192 125 0
-192 187 0
195 196 197 0
-195 -196 197 0
-143 -187 196 0
-196 143 0
-196 187 0
199 200 201 0
-199 -200 201 0
-151 -187 200 0
-200 151 0
-200 187 0
203 204 205 0
-203 -204 205 0
-159 -187 204 0
-204 159 0
-204 187 0
207 208 209 0
-207 -208 209 0
-17 -21 208 0
-208 17 0
-208 21 0
211 -212 213 0
-211 212 213 0
-212 125 0
-212 207 0
-125 -207 212 0
215 216 217 0
-215 -216 217 0
-143 -207 216 0
-216 143 0
-216 207 0
219 220 221 0
-219 -220 221 0
-151 -207 220 0
-220 151 0
-220 207 0
223 224 225 0
-223 -224 225 0
-159 -207 224 0
-224 159 0
-224 207 0
227 230 231 0
-227 -230 231 0
-229 -215 230 0
-2 -228 229 0
-230 229 0
-230 215 0
-229 2 0
-229 228 0
233 236 237 0
-233 -236 237 0
-235 -219 236 0
-2 -234 235 0
-236 235 0
-236 219 0
-235 2 0
-235 234 0
239 242 243 0
-239 -242 243 0
-241 -223 242 0
-2 -240 241 0
-242 241 0
-242 223 0
-241 2 0
-241 240 0
245 247 248 0
-245 -247 248 0
-2 -246 247 0
-247 2 0
-247 246 0
250 211 251 0
-250 -211 251 0
-461 -365 460 0
-461 365 -460 0
-365 315 364 0
-315 283 314 0
-283 267 282 0
-267 259 266 0
-259 255 258 0
-255 254 0
-255 139 0
-254 116 0
-254 253 0
-258 257 0
-258 147 0
-257 116 0
-257 256 0
-266 262 265 0
-262 261 0
-262 155 0
-261 116 0
-261 260 0
-265 264 0
-265 163 0
-264 116 0
-264 263 0
-282 274 281 0
-274 270 273 0
-270 269 0
-270 171 0
-269 116 0
-269 268 0
-273 272 0
-273 175 0
-272 116 0
-272 271 0
-281 277 280 0
-277 276 0
-277 179 0
-276 116 0
-276 275 0
-280 279 0
-280 183 0
-279 116 0
-279 278 0
-314 298 313 0
-298 290 297 0
-290 286 289 0
-286 285 0
-286 191 0
-285 116 0
-285 284 0
-289 288 0
-289 195 0
-288 116 0
-288 287 0
-297 293 296 0
-293 292 0
-293 199 0
-292 116 0
-292 291 0
-296 295 0
-296 203 0
-295 116 0
-295 294 0
-313 305 312 0
-305 301 304 0
-301 300 0
-301 211 0
-300 116 0
-300 299 0
-304 303 0
-304 215 0
-303 116 0
-303 302 0
-312 308 311 0
-308 307 0
-308 219 0
-307 116 0
-307 306 0
-311 310 0
-311 223 0
-310 116 0
-310 309 0
-364 346 363 0
-346 330 345 0
-330 322 329 0
-322 318 321 0
-318 317 0
-318 139 0
-317 2 0
-317 316 0
-321 320 0
-321 147 0
-320 2 0
-320 319 0
-329 325 328 0
-325 324 0
-325 155 0
-324 2 0
-324 323 0
-328 327 0
-328 163 0
-327 2 0
-327 326 0
-345 337 344 0
-337 333 336 0
-333 332 0
-333 171 0
-332 2 0
-332 331 0
-336 335 0
-336 175 0
-335 2 0
-335 334 0
-344 340 343 0
-340 339 0
-340 179 0
-339 2 0
-339 338 0
-343 342 0
-343 183 0
-342 2 0
-342 341 0
-363 361 362 0
-361 353 360 0
-353 349 352 0
-349 348 0
-349 191 0
-348 2 0
-348 347 0
-352 351 0
-352 195 0
-351 2 0
-351 350 0
-360 356 359 0
-356 355 0
-356 199 0
-355 2 0
-355 354 0
-359 358 0
-359 203 0
-358 2 0
-358 357 0
-460 412 459 0
-412 388 411 0
-388 376 387 0
-376 370 375 0
-370 367 369 0
-367 366 0
-367 28 0
-366 1 0
-366 253 0
-369 368 0
-369 36 0
-368 1 0
-368 256 0
-375 372 374 0
-372 371 0
-372 44 0
-371 1 0
-371 260 0
-374 373 0
-374 52 0
-373 1 0
-373 263 0
-387 381 386 0
-381 378 380 0
-378 377 0
-378 60 0
-377 1 0
-377 268 0
-380 379 0
-380 64 0
-379 1 0
-379 271 0
-386 383 385 0
-383 382 0
-383 68 0
-382 1 0
-382 275 0
-385 384 0
-385 72 0
-384 1 0
-384 278 0
-411 399 410 0
-399 393 398 0
-393 390 392 0
-390 389 0
-390 80 0
-389 1 0
-389 284 0
-392 391 0
-392 84 0
-391 1 0
-391 287 0
-398 395 397 0
-395 394 0
-395 88 0
-394 1 0
-394 291 0
-397 396 0
-397 92 0
-396 1 0
-396 294 0
-410 404 409 0
-404 401 403 0
-401 400 0
-401 100 0
-400 1 0
-400 299 0
-403 402 0
-403 104 0
-402 1 0
-402 302 0
-409 406 408 0
-406 405 0
-406 108 0
-405 1 0
-405 306 0
-408 407 0
-408 112 0
-407 1 0
-407 309 0
-459 435 458 0
-435 423 434 0
-423 417 422 0
-417 414 416 0
-414 413 0
-414 28 0
-413 2 0
-413 316 0
-416 415 0
-416 36 0
-415 2 0
-415 319 0
-422 419 421 0
-419 418 0
-419 44 0
-418 2 0
-418 323 0
-421 420 0
-421 52 0
-420 2 0
-420 326 0
-434 428 433 0
-428 425 427 0
-425 424 0
-425 60 0
-424 2 0
-424 331 0
-427 426 0
-427 64 0
-426 2 0
-426 334 0
-433 430 432 0
-430 429 0
-430 68 0
-429 2 0
-429 338 0
-432 431 0
-432 72 0
-431 2 0
-431 341 0
-458 446 457 0
-446 440 445 0
-440 437 439 0
-437 436 0
-437 80 0
-436 2 0
-436 347 0
-439 438 0
-439 84 0
-438 2 0
-438 350 0
-445 442 444 0
-442 441 0
-442 88 0
-441 2 0
-441 354 0
-444 443 0
-444 92 0
-443 2 0
-443 357 0
-457 451 456 0
-451 448 450 0
-448 447 0
-448 100 0
-447 2 0
-447 246 0
-450 449 0
-450 104 0
-449 2 0
-449 228 0
-456 453 455 0
-453 452 0
-453 108 0
-452 2 0
-452 234 0
-455 454 0
-455 112 0
-454 2 0
-454 240 0
-315 364 365 0
315 -364 365 0
-315 -364 365 0
-283 314 315 0
283 -314 315 0
-283 -314 315 0
-267 282 283 0
267 -282 283 0
-267 -282 283 0
-259 266 267 0
259 -266 267 0
-259 -266 267 0
-255 258 259 0
255 -258 259 0
-255 -258 259 0
-254 -139 255 0
-116 -253 254 0
-257 -147 258 0
-116 -256 257 0
-262 265 266 0
262 -265 266 0
-262 -265 266 0
-261 -155 262 0
-116 -260 261 0
-264 -163 265 0
-116 -263 264 0
-274 281 282 0
274 -281 282 0
-274 -281 282 0
-270 273 274 0
270 -273 274 0
-270 -273 274 0
-269 -171 270 0
-116 -268 269 0
-272 -175 273 0
-116 -271 272 0
-277 280 281 0
277 -280 281 0
-277 -280 281 0
-276 -179 277 0
-116 -275 276 0
-279 -183 280 0
-116 -278 279 0
-298 313 314 0
298 -313 314 0
-298 -313 314 0
-290 297 298 0
290 -297 298 0
-290 -297 298 0
-286 289 290 0
286 -289 290 0
-286 -289 290 0
-285 -191 286 0
-116 -284 285 0
-288 -195 289 0
-116 -287 288 0
-293 296 297 0
293 -296 297 0
-293 -296 297 0
-292 -199 293 0
-116 -291 292 0
-295 -203 296 0
-116 -294 295 0
-305 312 313 0
305 -312 313 0
-305 -312 313 0
-301 304 305 0
301 -304 305 0
-301 -304 305 0
-300 -211 301 0
-116 -299 300 0
-303 -215 304 0
-116 -302 303 0
-308 311 312 0
308 -311 312 0
-308 -311 312 0
-307 -219 308 0
-116 -306 307 0
-310 -223 311 0
-116 -309 310 0
-346 363 364 0
346 -363 364 0
-346 -363 364 0
-330 345 346 0
330 -345 346 0
-330 -345 346 0
-322 329 330 0
322 -329 330 0
-322 -329 330 0
-318 321 322 0
318 -321 322 0
-318 -321 322 0
-317 -139 318 0
-2 -316 317 0
-320 -147 321 0
-2 -319 320 0
-325 328 329 0
325 -328 329 0
-325 -328 329 0
-324 -155 325 0
-2 -323 324 0
-327 -163 328 0
-2 -326 327 0
-337 344 345 0
337 -344 345 0
-337 -344 345 0
-333 336 337 0
333 -336 337 0
-333 -336 337 0
-332 -171 333 0
-2 -331 332 0
-335 -175 336 0
-2 -334 335 0
-340 343 344 0
340 -343 344 0
-340 -343 344 0
-339 -179 340 0
-2 -338 339 0
-342 -183 343 0
-2 -341 342 0
-361 362 363 0
361 -362 363 0
-361 -362 363 0
-353 360 361 0
353 -360 361 0
-353 -360 361 0
-349 352 353 0
349 -352 353 0
-349 -352 353 0
-348 -191 349 0
-2 -347 348 0
-351 -195 352 0
-2 -350 351 0
-356 359 360 0
356 -359 360 0
-356 -359 360 0
-355 -199 356 0
-2 -354 355 0
-358 -203 359 0
-2 -357 358 0
-412 459 460 0
412 -459 460 0
-412 -459 460 0
-388 411 412 0
388 -411 412 0
-388 -411 412 0
-376 387 388 0
376 -387 388 0
-376 -387 388 0
-370 375 376 0
370 -375 376 0
-370 -375 376 0
-367 369 370 0
367 -369 370 0
-367 -369 370 0
-366 -28 367 0
-1 -253 366 0
-368 -36 369 0
-1 -256 368 0
-372 374 375 0
372 -374 375 0
-372 -374 375 0
-371 -44 372 0
-1 -260 371 0
-373 -52 374 0
-1 -263 373 0
-381 386 387 0
381 -386 387 0
-381 -386 387 0
-378 380 381 0
378 -380 381 0
-378 -380 381 0
-377 -60 378 0
-1 -268 377 0
-379 -64 380 0
-1 -271 379 0
-383 385 386 0
383 -385 386 0
-383 -385 386 0
-382 -68 383 0
-1 -275 382 0
-384 -72 385 0
-1 -278 384 0
-399 410 411 0
399 -410 411 0
-399 -410 411 0
-393 398 399 0
393 -398 399 0
-393 -398 399 0
-390 392 393 0
390 -392 393 0
-390 -392 393 0
-389 -80 390 0
-1 -284 389 0
-391 -84 392 0
-1 -287 391 0
-395 397 398 0
395 -397 398 0
-395 -397 398 0
-394 -88 395 0
-1 -291 394 0
-396 -92 397 0
-1 -294 396 0
-404 409 410 0
404 -409 410 0
-404 -409 410 0
-401 403 404 0
401 -403 404 0
-401 -403 404 0
-400 -100 401 0
-1 -299 400 0
-402 -104 403 0
-1 -302 402 0
-406 408 409 0
406 -408 409 0
-406 -408 409 0
-405 -108 406 0
-1 -306 405 0
-407 -112 408 0
-1 -309 407 0
-435 458 459 0
435 -458 459 0
-435 -458 459 0
-423 434 435 0
423 -434 435 0
-423 -434 435 0
-417 422 423 0
417 -422 423 0
-417 -422 423 0
-414 416 417 0
414 -416 417 0
-414 -416 417 0
-413 -28 414 0
-2 -316 413 0
-415 -36 416 0
-2 -319 415 0
-419 421 422 0
419 -421 422 0
-419 -421 422 0
-418 -44 419 0
-2 -323 418 0
-420 -52 421 0
-2 -326 420 0
-428 433 434 0
428 -433 434 0
-428 -433 434 0
-425 427 428 0
425 -427 428 0
-425 -427 428 0
-424 -60 425 0
-2 -331 424 0
-426 -64 427 0
-2 -334 426 0
-430 432 433 0
430 -432 433 0
-430 -432 433 0
-429 -68 430 0
-2 -338 429 0
-431 -72 432 0
-2 -341 431 0
-446 457 458 0
446 -457 458 0
-446 -457 458 0
-440 445 446 0
440 -445 446 0
-440 -445 446 0
-437 439 440 0
437 -439 440 0
-437 -439 440 0
-436 -80 437 0
-2 -347 436 0
-438 -84 439 0
-2 -350 438 0
-442 444 445 0
442 -444 445 0
-442 -444 445 0
-441 -88 442 0
-2 -354 441 0
-443 -92 444 0
-2 -357 443 0
-451 456 457 0
451 -456 457 0
-451 -456 457 0
-448 450 451 0
448 -450 451 0
-448 -450 451 0
-447 -100 448 0
-2 -246 447 0
-449 -104 450 0
-2 -228 449 0
-453 455 456 0
453 -455 456 0
-453 -455 456 0
-452 -108 453 0
-2 -234 452 0
-454 -112 455 0
-2 -240 454 0
1417 0
4 -1418 0
8 -1418 0
-4 -8 1418 0
20 -1419 0
16 -1419 0
-20 -16 1419 0
24 -1420 0
12 -1420 0
-24 -12 1420 0
8 -1421 0
5 -1421 0
-8 -5 1421 0
32 -1422 0
24 -1422 0
-32 -24 1422 0
4 -1423 0
9 -1423 0
-4 -9 1423 0
40 -1424 0
24 -1424 0
-40 -24 1424 0
5 -1425 0
9 -1425 0
-5 -9 1425 0
48 -1426 0
24 -1426 0
-48 -24 1426 0
20 -1427 0
17 -1427 0
-20 -17 1427 0
56 -1428 0
12 -1428 0
-56 -12 1428 0
56 -1429 0
32 -1429 0
-56 -32 1429 0
56 -1430 0
40 -1430 0
-56 -40 1430 0
56 -1431 0
48 -1431 0
-56 -48 1431 0
16 -1432 0
21 -1432 0
-16 -21 1432 0
12 -1433 0
76 -1433 0
-12 -76 1433 0
32 -1434 0
76 -1434 0
-32 -76 1434 0
40 -1435 0
76 -1435 0
-40 -76 1435 0
48 -1436 0
76 -1436 0
-48 -76 1436 0
21 -1437 0
17 -1437 0
-21 -17 1437 0
12 -1438 0
96 -1438 0
-12 -96 1438 0
32 -1439 0
96 -1439 0
-32 -96 1439 0
40 -1440 0
96 -1440 0
-40 -96 1440 0
48 -1441 0
96 -1441 0
-48 -96 1441 0
122 -1442 0
119 -1442 0
-122 -119 1442 0
129 -1443 0
132 -1443 0
-129 -132 1443 0
135 -1444 0
125 -1444 0
-135 -125 1444 0
5 -1445 0
122 -1445 0
-5 -122 1445 0
135 -1446 0
143 -1446 0
-135 -143 1446 0
9 -1447 0
119 -1447 0
-9 -119 1447 0
151 -1448 0
135 -1448 0
-151 -135 1448 0
159 -1449 0
135 -1449 0
-159 -135 1449 0
17 -1450 0
132 -1450 0
-17 -132 1450 0
167 -1451 0
125 -1451 0
-167 -125 1451 0
167 -1452 0
143 -1452 0
-167 -143 1452 0
167 -1453 0
151 -1453 0
-167 -151 1453 0
167 -1454 0
159 -1454 0
-167 -159 1454 0
21 -1455 0
129 -1455 0
-21 -129 1455 0
187 -1456 0
125 -1456 0
-187 -125 1456 0
187 -1457 0
143 -1457 0
-187 -143 1457 0
151 -1458 0
187 -1458 0
-151 -187 1458 0
159 -1459 0
187 -1459 0
-159 -187 1459 0
207 -1460 0
125 -1460 0
-207 -125 1460 0
207 -1461 0
143 -1461 0
-207 -143 1461 0
151 -1462 0
207 -1462 0
-151 -207 1462 0
159 -1463 0
207 -1463 0
-159 -207 1463 0
228 -1464 0
2 -1464 0
-228 -2 1464 0
215 -1465 0
229 -1465 0
-215 -229 1465 0
234 -1466 0
2 -1466 0
-234 -2 1466 0
219 -1467 0
235 -1467 0
-219 -235 1467 0
240 -1468 0
2 -1468 0
-240 -2 1468 0
223 -1469 0
241 -1469 0
-223 -241 1469 0
246 -1470 0
2 -1470 0
-246 -2 1470 0
253 -1471 0
116 -1471 0
-253 -116 1471 0
139 -1472 0
254 -1472 0
-139 -254 1472 0
256 -1473 0
116 -1473 0
-256 -116 1473 0
147 -1474 0
257 -1474 0
-147 -257 1474 0
-255 -1475 0
-258 -1475 0
255 258 1475 0
260 -1476 0
116 -1476 0
-260 -116 1476 0
155 -1477 0
261 -1477 0
-155 -261 1477 0
263 -1478 0
116 -1478 0
-263 -116 1478 0
163 -1479 0
264 -1479 0
-163 -264 1479 0
-262 -1480 0
-265 -1480 0
262 265 1480 0
-259 -1481 0
1480 -1481 0
259 -1480 1481 0
268 -1482 0
116 -1482 0
-268 -116 1482 0
171 -1483 0
269 -1483 0
-171 -269 1483 0
271 -1484 0
116 -1484 0
-271 -116 1484 0
175 -1485 0
272 -1485 0
-175 -272 1485 0
-270 -1486 0
-273 -1486 0
270 273 1486 0
275 -1487 0
116 -1487 0
-275 -116 1487 0
179 -1488 0
276 -1488 0
-179 -276 1488 0
278 -1489 0
116 -1489 0
-278 -116 1489 0
183 -1490 0
279 -1490 0
-183 -279 1490 0
-277 -1491 0
-280 -1491 0
277 280 1491 0
-274 -1492 0
-281 -1492 0
274 281 1492 0
-267 -1493 0
1492 -1493 0
267 -1492 1493 0
284 -1494 0
116 -1494 0
-284 -116 1494 0
191 -1495 0
285 -1495 0
-191 -285 1495 0
287 -1496 0
116 -1496 0
-287 -116 1496 0
195 -1497 0
288 -1497 0
-195 -288 1497 0
-286 -1498 0
-289 -1498 0
286 289 1498 0
291 -1499 0
116 -1499 0
-291 -116 1499 0
199 -1500 0
292 -1500 0
-199 -292 1500 0
294 -1501 0
116 -1501 0
-294 -116 1501 0
203 -1502 0
295 -1502 0
-203 -295 1502 0
-293 -1503 0
-296 -1503 0
293 296 1503 0
-290 -1504 0
-297 -1504 0
290 297 1504 0
299 -1505 0
116 -1505 0
-299 -116 1505 0
211 -1506 0
300 -1506 0
-211 -300 1506 0
302 -1507 0
116 -1507 0
-302 -116 1507 0
215 -1508 0
303 -1508 0
-215 -303 1508 0
-301 -1509 0
-304 -1509 0
301 304 1509 0
306 -1510 0
116 -1510 0
-306 -116 1510 0
219 -1511 0
307 -1511 0
-219 -307 1511 0
309 -1512 0
116 -1512 0
-309 -116 1512 0
223 -1513 0
310 -1513 0
-223 -310 1513 0
-308 -1514 0
-311 -1514 0
308 311 1514 0
-305 -1515 0
-312 -1515 0
305 312 1515 0
-298 -1516 0
-313 -1516 0
298 313 1516 0
-283 -1517 0
-314 -1517 0
283 314 1517 0
316 -1518 0
2 -1518 0
-316 -2 1518 0
139 -1519 0
317 -1519 0
-139 -317 1519 0
319 -1520 0
2 -1520 0
-319 -2 1520 0
147 -1521 0
320 -1521 0
-147 -320 1521 0
-318 -1522 0
-321 -1522 0
318 321 1522 0
323 -1523 0
2 -1523 0
-323 -2 1523 0
155 -1524 0
324 -1524 0
-155 -324 1524 0
326 -1525 0
2 -1525 0
-326 -2 1525 0
163 -1526 0
327 -1526 0
-163 -327 1526 0
-325 -1527 0
-328 -1527 0
325 328 1527 0
-322 -1528 0
-329 -1528 0
322 329 1528 0
331 -1529 0
2 -1529 0
-331 -2 1529 0
171 -1530 0
332 -1530 0
-171 -332 1530 0
334 -1531 0
2 -1531 0
-334 -2 1531 0
175 -1532 0
335 -1532 0
-175 -335 1532 0
-333 -1533 0
-336 -1533 0
333 336 1533 0
338 -1534 0
2 -1534 0
-338 -2 1534 0
179 -1535 0
339 -1535 0
-179 -339 1535 0
341 -1536 0
2 -1536 0
-341 -2 1536 0
183 -1537 0
342 -1537 0
-183 -342 1537 0
-340 -1538 0
-343 -1538 0
340 343 1538 0
-337 -1539 0
-344 -1539 0
337 344 1539 0
-330 -1540 0
1539 -1540 0
330 -1539 1540 0
347 -1541 0
2 -1541 0
-347 -2 1541 0
191 -1542 0
348 -1542 0
-191 -348 1542 0
350 -1543 0
2 -1543 0
-350 -2 1543 0
195 -1544 0
351 -1544 0
-195 -351 1544 0
-349 -1545 0
-352 -1545 0
349 352 1545 0
354 -1546 0
2 -1546 0
-354 -2 1546 0
199 -1547 0
355 -1547 0
-199 -355 1547 0
357 -1548 0
2 -1548 0
-357 -2 1548 0
203 -1549 0
358 -1549 0
-203 -358 1549 0
-356 -1550 0
-359 -1550 0
356 359 1550 0
-353 -1551 0
-360 -1551 0
353 360 1551 0
-346 -1552 0
-363 -1552 0
346 363 1552 0
-315 -1553 0
1552 -1553 0
315 -1552 1553 0
1 -1554 0
253 -1554 0
-1 -253 1554 0
28 -1555 0
366 -1555 0
-28 -366 1555 0
1 -1556 0
256 -1556 0
-1 -256 1556 0
36 -1557 0
368 -1557 0
-36 -368 1557 0
-367 -1558 0
-369 -1558 0
367 369 1558 0
1 -1559 0
260 -1559 0
-1 -260 1559 0
44 -1560 0
371 -1560 0
-44 -371 1560 0
1 -1561 0
263 -1561 0
-1 -263 1561 0
52 -1562 0
373 -1562 0
-52 -373 1562 0
-372 -1563 0
-374 -1563 0
372 374 1563 0
-370 -1564 0
-375 -1564 0
370 375 1564 0
1 -1565 0
268 -1565 0
-1 -268 1565 0
60 -1566 0
377 -1566 0
-60 -377 1566 0
1 -1567 0
271 -1567 0
-1 -271 1567 0
64 -1568 0
379 -1568 0
-64 -379 1568 0
-378 -1569 0
-380 -1569 0
378 380 1569 0
1 -1570 0
275 -1570 0
-1 -275 1570 0
68 -1571 0
382 -1571 0
-68 -382 1571 0
1 -1572 0
278 -1572 0
-1 -278 1572 0
72 -1573 0
384 -1573 0
-72 -384 1573 0
-383 -1574 0
-385 -1574 0
383 385 1574 0
-381 -1575 0
-386 -1575 0
381 386 1575 0
-376 -1576 0
-387 -1576 0
376 387 1576 0
1 -1577 0
284 -1577 0
-1 -284 1577 0
80 -1578 0
389 -1578 0
-80 -389 1578 0
287 -1579 0
1 -1579 0
-287 -1 1579 0
84 -1580 0
391 -1580 0
-84 -391 1580 0
-390 -1581 0
-392 -1581 0
390 392 1581 0
291 -1582 0
1 -1582 0
-291 -1 1582 0
88 -1583 0
394 -1583 0
-88 -394 1583 0
294 -1584 0
1 -1584 0
-294 -1 1584 0
92 -1585 0
396 -1585 0
-92 -396 1585 0
-395 -1586 0
-397 -1586 0
395 397 1586 0
-393 -1587 0
-398 -1587 0
393 398 1587 0
299 -1588 0
1 -1588 0
-299 -1 1588 0
100 -1589 0
400 -1589 0
-100 -400 1589 0
302 -1590 0
1 -1590 0
-302 -1 1590 0
104 -1591 0
402 -1591 0
-104 -402 1591 0
-401 -1592 0
-403 -1592 0
401 403 1592 0
306 -1593 0
1 -1593 0
-306 -1 1593 0
108 -1594 0
405 -1594 0
-108 -405 1594 0
309 -1595 0
1 -1595 0
-309 -1 1595 0
112 -1596 0
407 -1596 0
-112 -407 1596 0
-406 -1597 0
-408 -1597 0
406 408 1597 0
-404 -1598 0
-409 -1598 0
404 409 1598 0
-399 -1599 0
-410 -1599 0
399 410 1599 0
-388 -1600 0
1599 -1600 0
388 -1599 1600 0
28 -1601 0
413 -1601 0
-28 -413 1601 0
36 -1602 0
415 -1602 0
-36 -415 1602 0
-414 -1603 0
-416 -1603 0
414 416 1603 0
44 -1604 0
418 -1604 0
-44 -418 1604 0
52 -1605 0
420 -1605 0
-52 -420 1605 0
-419 -1606 0
-421 -1606 0
419 421 1606 0
-417 -1607 0
-422 -1607 0
417 422 1607 0
60 -1608 0
424 -1608 0
-60 -424 1608 0
64 -1609 0
426 -1609 0
-64 -426 1609 0
-425 -1610 0
-427 -1610 0
425 427 1610 0
68 -1611 0
429 -1611 0
-68 -429 1611 0
72 -1612 0
431 -1612 0
-72 -431 1612 0
-430 -1613 0
-432 -1613 0
430 432 1613 0
-428 -1614 0
-433 -1614 0
428 433 1614 0
-423 -1615 0
-434 -1615 0
423 434 1615 0
80 -1616 0
436 -1616 0
-80 -436 1616 0
84 -1617 0
438 -1617 0
-84 -438 1617 0
-437 -1618 0
-439 -1618 0
437 439 1618 0
88 -1619 0
441 -1619 0
-88 -441 1619 0
92 -1620 0
443 -1620 0
-92 -443 1620 0
-442 -1621 0
-444 -1621 0
442 444 1621 0
-440 -1622 0
-445 -1622 0
440 445 1622 0
100 -1623 0
447 -1623 0
-100 -447 1623 0
104 -1624 0
449 -1624 0
-104 -449 1624 0
-448 -1625 0
-450 -1625 0
448 450 1625 0
108 -1626 0
452 -1626 0
-108 -452 1626 0
112 -1627 0
454 -1627 0
-112 -454 1627 0
-453 -1628 0
-455 -1628 0
453 455 1628 0
-451 -1629 0
-456 -1629 0
451 456 1629 0
-446 -1630 0
1629 -1630 0
446 -1629 1630 0
-435 -1631 0
-458 -1631 0
435 458 1631 0
-412 -1632 0
1631 -1632 0
412 -1631 1632 0
